  5   0   0   0   1   0   0   0   0   0   0   0   0   0   0   0   0   0   0   0   0   0   0   0   0   0   0   0   0   0   0   0   0   0   0   0   0   0   0   0   0   0   0   0   0   0   0   0   0   0   0   0   0   0   0   0   0   0   0   0   0   0   0   0   0   0   0   0   0   0   0   0   0   0   0   0   0   0   0   0   0   0   0   0   0   0   0   0   0   0   0   0   0   0   0   0   0   0   0   0   0   0   0   0   0   0   0   0   0   0   0   0   0   0   0   0   0   0   0   0   0   0   0   0   0   0   0   0   0   0   0   0   0   0   0   0   0   0   0   0   0   0   0   0   0   0   0   0   0   0   0   0   0   0   0   0   0   0   0   0   0   0   0   0   0   0   0   0   0   0   0   0   0   0   0   0   0   0   0   0   0   0   0   0   0   0   0   0   0   0   0   0   0   0   0   0   0   0   0   0   0   0   0   0   0   0   0   0   0   0   0   0   0   0   0   0   0   0   0   0   0   0   0   0   0   0   0   0   0   0   0   0   0   0   0   0   0   0   0   0   0   0   0   0   0   0   0   0   0   0   0   0   0   0   0   0   0   0   0   0   0   0   0   0   0   0   0   0   0   0   0   0   0   0   0   0   0   0   0   0   0   0   0   0   0   0   0   0   0   0   0   0   0   0   0   0   0   0   0   0   0   0   0   0   0   0   0   0   0   0   0   0   0   0   0   0   0   0   0   0   0   0   0   0   0   0   0   0   0   0   0   0   0   0   0   0   0   0   0   0   0   0   0   0   0   0   0   0   0   0   0   0   0   0   0   0   0   0   0   0   0   0   0   0   0   0   0   0   0   0   0   0   0   0   0   0   0   0   0   0   0   0   0   0   0   0   0   0   0   0   0   0   0   0   0   0   0   0   0   0   0   0   0   0   0   0   0   0   0   0   0   0   0   0   0   0   0   0   0   0   0   0   0   0   0   0   0   0   0   0   0   0   0   0   0   0   0   0   0   0   0   0   0   0   0   0   0   0   0   0   0   0   0   0   0   0   0   0   0   0   0   0   0   0   0   0   0   0   0   0   0   0   0   0   0   0   0   0   0   0   0   0   0   0   0   0   0   0   0   0   0   0   0   0   0   0   0   0   0   0   0   0   0   0   0   0   0   0   0   0   0   0   0   0   0   0   0   0   0   0   0   0   0   0   0   0   0   0   0   0   0   0   0   0   0   0   0   0   0   0   0   0   0   0   0   0   0   0   0   0   0   0   0   0   0   0   0   0   0   0   0   0   0   0   0   0   0   0   0   0   0   0   0   0   0   0   0   0   0   0   0   0   0   0   0   0   0   0   0   0   0   0   0   0   0   0   0   0   0   0   0   0   0   0   0   0   0   0   0   0   0   0   0   0   0   0   0   0   0   0   0   0   0   0   0   0   0   0   0   0   0   0   0   0   0   0   0   0   0   0   0   0   0   0   0   0   0   0   0   0   0   0   0   0   0   0   0   0   0   0   0   0   0   0   0   0   0   0   0   0   0   0   0   0   0   0   0   0   0   0   0   0   0   0   0   0   0   0   0   0   0   0   0   0   0   0   0   0   0   0   0   0   0   0   0   0   0   0   0   0   0   0   0   0   0   0   0   0   0   0   0   0   0   0   0   0   0   0   0   0   0   0   0   0   0   0   0   0   0   0   0   0   0   0   0   0   0   0   0   0   0   0   0   0   0   0   0   0   0   0   0   0   0   0   0   0   0   0   0   0   0   0   0   0   0   0   0   0   0   0   0   0   0   0   0   0   0   0   0   0   0   0   0   0   0   0   0   0   0   0   0   0   0   0   0   0   0   0   0   0   0   0   0   0   0   0   0   0   0   0   0   0   0   0   0   0   0   0   0   0   0   0   0   0   0   0   0   0   0   0   0   0   0   0   0   0   0   0   0   0   0   0   0   0   0   0   0   0   0   0   0   0   0   0   0   0   0   0   0   0   0   0   0   0   0   0   0   0   0   0   0   0   0   0   0   0   0   0   0   0   0   0   0   0   0   0   0   0   0   0   0   0   0   0   0   0   0   0   0   0   0   0   0   0   0   0   0   0   0   0   0   0   0   0   0   0   0   0   0   0   0   0   0   0   0   0   0   0   0   0   0   0   0   0   0   0   0   0   0   0   0   0   0   0   0   0   0   0   0   0   0   0   0   0   0   0   0   0   0   0   0   0   0   0   0   0   0   0   0   0   0   0   0   0   0   0   0   0   0   0   0   0   0   0   0   0   0   0   0   0 
REMAINING SPACE:      1
ACCUMULATED PRIORITY: 600
EXECUTION TIME:       0.000113600
QTY PRI VAL
[5] 100  97
[0] 100  70
[0] 100  91
[0] 100  82
[1] 100  14
[0] 100 136
[0] 100 128
[0]  99  89
[0]  99  89
[0]  99  34
[0]  99  44
[0]  99 196
[0]  99 165
[0]  99 162
[0]  99  75
[0]  99  90
[0]  98 110
[0]  98 155
[0]  98 194
[0]  98 119
[0]  98 100
[0]  98 170
[0]  98 179
[0]  98  73
[0]  98 124
[0]  98  10
[0]  97  72
[0]  97  67
[0]  97 152
[0]  97 175
[0]  97 106
[0]  97 106
[0]  97  75
[0]  97 102
[0]  97 136
[0]  96 142
[0]  96  96
[0]  96 200
[0]  96  10
[0]  96 192
[0]  96 138
[0]  96 130
[0]  96 190
[0]  96  46
[0]  96 164
[0]  95 177
[0]  95  30
[0]  95 117
[0]  95 178
[0]  95  32
[0]  95  18
[0]  95 105
[0]  95 110
[0]  95  17
[0]  95  17
[0]  95 165
[0]  95 174
[0]  95  18
[0]  95  53
[0]  95 168
[0]  95 105
[0]  95  69
[0]  95  75
[0]  94  18
[0]  94  19
[0]  94  25
[0]  94 182
[0]  94 183
[0]  94  26
[0]  94 110
[0]  94  87
[0]  94  23
[0]  94 142
[0]  94 150
[0]  94  96
[0]  94  84
[0]  94  33
[0]  94  31
[0]  93  43
[0]  93  77
[0]  93 135
[0]  93  24
[0]  93 162
[0]  93 154
[0]  93 128
[0]  93  24
[0]  93  66
[0]  93  64
[0]  93  12
[0]  93  73
[0]  93  53
[0]  93 114
[0]  93 109
[0]  93 164
[0]  92  94
[0]  92 161
[0]  92  82
[0]  92 179
[0]  92  64
[0]  92 139
[0]  92 199
[0]  92  98
[0]  92  38
[0]  92 111
[0]  92  46
[0]  91 123
[0]  91 123
[0]  91 123
[0]  91  39
[0]  91  97
[0]  91 102
[0]  91 109
[0]  91  35
[0]  91 184
[0]  90  24
[0]  90 156
[0]  90 186
[0]  90 193
[0]  90 191
[0]  90 155
[0]  90 178
[0]  90 192
[0]  90  30
[0]  90  90
[0]  90  50
[0]  90 158
[0]  90  13
[0]  90  84
[0]  89  59
[0]  89  91
[0]  89  61
[0]  89 122
[0]  89 196
[0]  89 160
[0]  89 120
[0]  89  56
[0]  88 131
[0]  88 142
[0]  88  37
[0]  88 132
[0]  88 167
[0]  88  99
[0]  88 131
[0]  88  20
[0]  88 200
[0]  87 116
[0]  87 197
[0]  87 170
[0]  87 102
[0]  87 104
[0]  87 107
[0]  87  15
[0]  87  39
[0]  87 138
[0]  86 134
[0]  86  86
[0]  86  74
[0]  86 105
[0]  86  21
[0]  86 163
[0]  86 143
[0]  86  50
[0]  86  39
[0]  85  28
[0]  85 197
[0]  85  25
[0]  85 106
[0]  85  37
[0]  85  82
[0]  84  97
[0]  84  87
[0]  84 104
[0]  84  23
[0]  84 152
[0]  84 136
[0]  84 111
[0]  84 182
[0]  84  82
[0]  84 112
[0]  84  97
[0]  84  42
[0]  84  10
[0]  83 198
[0]  83 187
[0]  83  11
[0]  83  53
[0]  83 164
[0]  83 180
[0]  83 117
[0]  83  28
[0]  83 147
[0]  83 185
[0]  83  35
[0]  83  10
[0]  83 182
[0]  83  65
[0]  82  91
[0]  82  54
[0]  82 118
[0]  82  48
[0]  82 159
[0]  82  43
[0]  82 106
[0]  82  84
[0]  82  23
[0]  82  66
[0]  82  86
[0]  82  63
[0]  81 198
[0]  81 161
[0]  81 101
[0]  81 114
[0]  81 190
[0]  81 170
[0]  81  60
[0]  81 183
[0]  81 112
[0]  81  65
[0]  81 197
[0]  81  93
[0]  80 183
[0]  80  91
[0]  80  22
[0]  80 192
[0]  80 130
[0]  80 111
[0]  80 106
[0]  80  24
[0]  80 184
[0]  79 182
[0]  79 150
[0]  79  35
[0]  79 127
[0]  79  97
[0]  79 114
[0]  79  29
[0]  79  73
[0]  79  81
[0]  79 197
[0]  79 112
[0]  79 180
[0]  79 121
[0]  79  92
[0]  79 105
[0]  78 124
[0]  78 141
[0]  78 134
[0]  78 151
[0]  78  11
[0]  78 171
[0]  78  82
[0]  78 191
[0]  78  25
[0]  78  16
[0]  78 178
[0]  77  50
[0]  77 183
[0]  77 174
[0]  77  54
[0]  77  29
[0]  77 134
[0]  77 137
[0]  77  27
[0]  77 187
[0]  77  62
[0]  77  36
[0]  77  36
[0]  77  10
[0]  77  91
[0]  77 110
[0]  76  13
[0]  76  60
[0]  76  50
[0]  76 122
[0]  76 180
[0]  76  59
[0]  76 155
[0]  76 195
[0]  76  43
[0]  76 192
[0]  75  39
[0]  75  40
[0]  75 133
[0]  75 126
[0]  75 147
[0]  75 126
[0]  75  48
[0]  75 117
[0]  75 192
[0]  75  73
[0]  75 193
[0]  75 160
[0]  75 180
[0]  75 167
[0]  75 180
[0]  74  91
[0]  74  18
[0]  74  15
[0]  74 134
[0]  74 165
[0]  74  33
[0]  74 108
[0]  74 197
[0]  74  45
[0]  74  90
[0]  74  40
[0]  74 114
[0]  74  59
[0]  73 135
[0]  73 171
[0]  73  26
[0]  73  98
[0]  73 178
[0]  73  88
[0]  73  51
[0]  73  38
[0]  73 175
[0]  73 122
[0]  73 171
[0]  73  84
[0]  72  76
[0]  72  66
[0]  72 126
[0]  72  39
[0]  72  55
[0]  72 125
[0]  72 108
[0]  72 153
[0]  72 169
[0]  72 148
[0]  71 176
[0]  71  53
[0]  71  13
[0]  71  26
[0]  71 126
[0]  71 148
[0]  71 195
[0]  71 119
[0]  71 195
[0]  71  36
[0]  71  34
[0]  71  69
[0]  71 135
[0]  71 163
[0]  71  23
[0]  71 174
[0]  70  86
[0]  70 132
[0]  70 120
[0]  70 196
[0]  70 140
[0]  70 140
[0]  70  74
[0]  70 172
[0]  70  74
[0]  70  81
[0]  70 163
[0]  69 106
[0]  69 184
[0]  69 164
[0]  69 181
[0]  69  20
[0]  69 197
[0]  69  66
[0]  69 111
[0]  69  73
[0]  69 122
[0]  68 154
[0]  68 138
[0]  68  50
[0]  68 116
[0]  68  10
[0]  68  76
[0]  68  83
[0]  67 162
[0]  67 100
[0]  67 151
[0]  67  27
[0]  67 189
[0]  67  76
[0]  67 170
[0]  67 112
[0]  67  19
[0]  67 173
[0]  67 197
[0]  67  90
[0]  66 127
[0]  66 127
[0]  66 119
[0]  66  84
[0]  66 144
[0]  66  61
[0]  66 192
[0]  66  75
[0]  66  68
[0]  66 194
[0]  66 118
[0]  66 170
[0]  66  56
[0]  66  57
[0]  65 123
[0]  65 194
[0]  65  25
[0]  65  30
[0]  65 104
[0]  65  95
[0]  65  98
[0]  65 184
[0]  65 172
[0]  65  72
[0]  65  19
[0]  65  82
[0]  64 131
[0]  64 118
[0]  64  23
[0]  64 174
[0]  64 175
[0]  64  64
[0]  64  20
[0]  64  15
[0]  64  74
[0]  64 131
[0]  63 189
[0]  63 162
[0]  63  68
[0]  63  61
[0]  63  51
[0]  63 162
[0]  63 165
[0]  63  31
[0]  63 150
[0]  63  18
[0]  63 137
[0]  62  87
[0]  62  86
[0]  62 182
[0]  62 170
[0]  62  30
[0]  62  86
[0]  61 149
[0]  61 100
[0]  61  18
[0]  61 130
[0]  61 124
[0]  61  84
[0]  61 189
[0]  61  53
[0]  61 192
[0]  60 153
[0]  60  29
[0]  60  31
[0]  60 156
[0]  60 192
[0]  60  12
[0]  59  72
[0]  59 145
[0]  59  60
[0]  59  82
[0]  59 170
[0]  59 113
[0]  59 149
[0]  59  26
[0]  59 170
[0]  59 180
[0]  58  65
[0]  58 100
[0]  58  14
[0]  58 180
[0]  58 169
[0]  58 188
[0]  58 141
[0]  58  99
[0]  58 169
[0]  58 117
[0]  58  15
[0]  58 181
[0]  58  53
[0]  58 100
[0]  58  76
[0]  57 108
[0]  57  63
[0]  57  38
[0]  57  61
[0]  57  94
[0]  57  21
[0]  57  77
[0]  57 126
[0]  56 144
[0]  56 179
[0]  56 186
[0]  56 129
[0]  56 200
[0]  56 191
[0]  56  49
[0]  56 103
[0]  55  83
[0]  55  68
[0]  55 168
[0]  55  56
[0]  55 137
[0]  55 175
[0]  55  11
[0]  54  77
[0]  54  15
[0]  54  36
[0]  54 146
[0]  54 133
[0]  54 192
[0]  54  39
[0]  54  83
[0]  54  22
[0]  54 193
[0]  54 115
[0]  54  21
[0]  54 171
[0]  54 190
[0]  53 187
[0]  53  76
[0]  53 169
[0]  53  28
[0]  53  10
[0]  53 113
[0]  53 157
[0]  53 101
[0]  53 186
[0]  53  15
[0]  53 134
[0]  52 144
[0]  52 102
[0]  52 196
[0]  52 115
[0]  52  10
[0]  52 126
[0]  52 169
[0]  52 155
[0]  52 190
[0]  52 197
[0]  52 163
[0]  51  43
[0]  51  24
[0]  51  24
[0]  51 169
[0]  51  61
[0]  51  80
[0]  51 105
[0]  51  37
[0]  51  61
[0]  51  95
[0]  51 127
[0]  50  26
[0]  50 124
[0]  50 121
[0]  50  45
[0]  50 129
[0]  50 136
[0]  50 159
[0]  50  59
[0]  50 186
[0]  50 127
[0]  49  96
[0]  49 118
[0]  49 188
[0]  49  93
[0]  48 181
[0]  48 114
[0]  48 189
[0]  48  63
[0]  48  61
[0]  48  65
[0]  48 120
[0]  48  68
[0]  47 169
[0]  47 163
[0]  47 106
[0]  47  98
[0]  47 130
[0]  47  75
[0]  46  42
[0]  46 110
[0]  46  35
[0]  46 115
[0]  46  69
[0]  46  71
[0]  46 123
[0]  46 149
[0]  45 146
[0]  45 149
[0]  45  14
[0]  45  63
[0]  45 173
[0]  45 166
[0]  45 167
[0]  45 129
[0]  44  84
[0]  44  96
[0]  44 167
[0]  44 139
[0]  44 129
[0]  44 141
[0]  44 179
[0]  44  15
[0]  44 160
[0]  44  22
[0]  44  35
[0]  44 166
[0]  43  67
[0]  43 154
[0]  43 174
[0]  43 169
[0]  43 104
[0]  43  32
[0]  43  13
[0]  43 158
[0]  43  35
[0]  43 121
[0]  43  36
[0]  43 142
[0]  43 178
[0]  43 137
[0]  42  14
[0]  42 184
[0]  42  86
[0]  42  56
[0]  42  61
[0]  42  94
[0]  42 111
[0]  42 109
[0]  42 199
[0]  42  36
[0]  42 101
[0]  42 136
[0]  42 146
[0]  42  89
[0]  41  62
[0]  41  58
[0]  41 158
[0]  41 101
[0]  41  25
[0]  41  28
[0]  41 112
[0]  41  15
[0]  41  31
[0]  41  86
[0]  41  22
[0]  40 105
[0]  40  13
[0]  40  62
[0]  40 188
[0]  40 102
[0]  40  74
[0]  40  90
[0]  40 157
[0]  40 142
[0]  40 193
[0]  40  78
[0]  39 155
[0]  39 196
[0]  38  96
[0]  38 135
[0]  38 100
[0]  38  10
[0]  38 116
[0]  38 188
[0]  38  53
[0]  38 131
[0]  38  59
[0]  38 139
[0]  38 115
[0]  38 188
[0]  38 174
[0]  37 173
[0]  37 129
[0]  37 195
[0]  37 171
[0]  37 192
[0]  37 151
[0]  37  89
[0]  37 132
[0]  37  53
[0]  37 165
[0]  37  44
[0]  37 192
[0]  37  95
[0]  37  95
[0]  37 153
[0]  36  80
[0]  36  60
[0]  36 166
[0]  36  59
[0]  36  55
[0]  36 183
[0]  36  93
[0]  36 101
[0]  36  34
[0]  35  81
[0]  35 128
[0]  35  65
[0]  35  48
[0]  35  22
[0]  35 111
[0]  35  53
[0]  35 191
[0]  35  47
[0]  35  42
[0]  35  16
[0]  35  19
[0]  35  34
[0]  34  35
[0]  34  52
[0]  34  41
[0]  34  47
[0]  34 128
[0]  34 143
[0]  34  86
[0]  34 121
[0]  34  77
[0]  34 151
[0]  33 104
[0]  33  77
[0]  33 131
[0]  33 147
[0]  33  94
[0]  33 102
[0]  33 115
[0]  33  52
[0]  33 165
[0]  33  79
[0]  33  72
[0]  33  39
[0]  33 174
[0]  32  68
[0]  32 113
[0]  32 145
[0]  32 183
[0]  32 152
[0]  32 167
[0]  32 163
[0]  32 178
[0]  32  96
[0]  32  69
[0]  32 107
[0]  32 100
[0]  32 175
[0]  31  94
[0]  31  64
[0]  31  60
[0]  31  69
[0]  31 199
[0]  31 167
[0]  31 150
[0]  31 171
[0]  31 182
[0]  31  75
[0]  31 171
[0]  30 108
[0]  30 117
[0]  30  89
[0]  30  99
[0]  30  55
[0]  30  85
[0]  30 157
[0]  30 108
[0]  30  21
[0]  30  45
[0]  30  75
[0]  30  72
[0]  30 146
[0]  30  13
[0]  30 140
[0]  30 153
[0]  30  24
[0]  29  26
[0]  29 173
[0]  29 100
[0]  29 158
[0]  29  53
[0]  29 170
[0]  29  57
[0]  29  68
[0]  29  94
[0]  29 149
[0]  29 198
[0]  28 165
[0]  28 165
[0]  28  40
[0]  28  46
[0]  28  45
[0]  28  95
[0]  28 178
[0]  28  62
[0]  28  82
[0]  28 174
[0]  28  15
[0]  28 146
[0]  28  19
[0]  28 134
[0]  28 109
[0]  28 155
[0]  28  86
[0]  28 108
[0]  28 115
[0]  28 170
[0]  28  28
[0]  28 154
[0]  28  67
[0]  27 182
[0]  27 121
[0]  27 105
[0]  27 196
[0]  27  71
[0]  27  74
[0]  27 129
[0]  26 194
[0]  26  24
[0]  26  97
[0]  26 123
[0]  26 156
[0]  26 157
[0]  26 197
[0]  26  29
[0]  26 192
[0]  26 196
[0]  26  18
[0]  26 195
[0]  25 117
[0]  25  66
[0]  25  53
[0]  25 146
[0]  25 117
[0]  25 157
[0]  25 107
[0]  25 130
[0]  25 104
[0]  25  55
[0]  25 141
[0]  25  74
[0]  25 179
[0]  25  45
[0]  24  26
[0]  24 128
[0]  24  51
[0]  24  29
[0]  24 180
[0]  24  98
[0]  24  53
[0]  24  38
[0]  24  35
[0]  23  50
[0]  23  88
[0]  23 133
[0]  23 149
[0]  23  17
[0]  23  51
[0]  23  25
[0]  23  40
[0]  23 123
[0]  23 116
[0]  23  38
[0]  22 157
[0]  22 177
[0]  22  29
[0]  22 171
[0]  22 120
[0]  22  55
[0]  22  86
[0]  22  30
[0]  22 191
[0]  22 185
[0]  22 180
[0]  22  91
[0]  22  90
[0]  21 195
[0]  21 133
[0]  21 191
[0]  21 193
[0]  21  79
[0]  21  98
[0]  21 101
[0]  21 164
[0]  21  84
[0]  21 108
[0]  20 186
[0]  20 169
[0]  20 180
[0]  20  19
[0]  20 129
[0]  20 194
[0]  20  22
[0]  20 195
[0]  20 181
[0]  19 196
[0]  19  82
[0]  19 120
[0]  19 136
[0]  19 185
[0]  19 140
[0]  19 143
[0]  19 184
[0]  18  64
[0]  18 193
[0]  18  51
[0]  18 180
[0]  18 171
[0]  18 120
[0]  18 146
[0]  18 145
[0]  18 102
[0]  18  35
[0]  18  57
[0]  18 200
[0]  18 131
[0]  18 157
[0]  18 133
[0]  18 169
[0]  18 125
[0]  18 109
[0]  17 190
[0]  17 141
[0]  17 167
[0]  17  92
[0]  17 186
[0]  17 170
[0]  17  33
[0]  16  14
[0]  16  75
[0]  16 123
[0]  16 159
[0]  16  87
[0]  16  38
[0]  16  58
[0]  16 171
[0]  16 189
[0]  16  55
[0]  16 153
[0]  16 158
[0]  15  89
[0]  15 133
[0]  15  51
[0]  15  16
[0]  15 180
[0]  15 114
[0]  15 150
[0]  15 164
[0]  15  77
[0]  15 151
[0]  15 120
[0]  15 193
[0]  15 162
[0]  14 185
[0]  14  50
[0]  14 130
[0]  14 143
[0]  14 174
[0]  14 161
[0]  14  33
[0]  14 184
[0]  14 102
[0]  14  91
[0]  14 124
[0]  14 128
[0]  14 113
[0]  14 186
[0]  14 128
[0]  13 131
[0]  13 132
[0]  13  30
[0]  13  77
[0]  13  35
[0]  12  65
[0]  12 143
[0]  12  13
[0]  12  71
[0]  12  73
[0]  12 192
[0]  12  58
[0]  12  35
[0]  12 102
[0]  11  51
[0]  11 125
[0]  11 118
[0]  11 121
[0]  11 103
[0]  11  72
[0]  11 173
[0]  11  96
[0]  11 147
[0]  11  62
[0]  11  17
[0]  11 196
[0]  10  50
[0]  10  67
[0]  10  68
[0]  10  18
[0]  10  21
[0]  10 173
[0]  10 130
[0]  10 109
[0]  10 108
[0]  10  84
[0]  10  33
